(set-option :produce-models true)
(set-logic QF_UF)
(declare-fun p80() Bool)
(declare-fun p62() Bool)
(declare-fun p100() Bool)
(declare-fun p52() Bool)
(declare-fun p87() Bool)
(declare-fun p42() Bool)
(declare-fun p25() Bool)
(declare-fun p49() Bool)
(declare-fun p90() Bool)
(declare-fun p43() Bool)
(declare-fun p46() Bool)
(declare-fun p63() Bool)
(declare-fun p2() Bool)
(declare-fun p5() Bool)
(declare-fun p1() Bool)
(declare-fun p91() Bool)
(declare-fun p86() Bool)
(declare-fun p29() Bool)
(declare-fun p113() Bool)
(declare-fun p6() Bool)
(declare-fun p64() Bool)
(declare-fun p38() Bool)
(declare-fun p70() Bool)
(declare-fun p75() Bool)
(declare-fun p88() Bool)
(declare-fun p65() Bool)
(declare-fun p9() Bool)
(declare-fun p18() Bool)
(declare-fun p3() Bool)
(declare-fun p15() Bool)
(declare-fun p21() Bool)
(declare-fun p104() Bool)
(declare-fun p95() Bool)
(declare-fun p102() Bool)
(declare-fun p97() Bool)
(declare-fun p31() Bool)
(declare-fun p23() Bool)
(declare-fun p81() Bool)
(declare-fun p60() Bool)
(declare-fun p116() Bool)
(declare-fun p59() Bool)
(declare-fun p103() Bool)
(declare-fun p108() Bool)
(declare-fun p4() Bool)
(declare-fun p13() Bool)
(declare-fun p111() Bool)
(declare-fun p89() Bool)
(declare-fun p78() Bool)
(declare-fun p8() Bool)
(declare-fun p26() Bool)
(declare-fun p67() Bool)
(declare-fun p41() Bool)
(declare-fun p54() Bool)
(declare-fun p92() Bool)
(declare-fun p19() Bool)
(declare-fun p51() Bool)
(declare-fun p114() Bool)
(declare-fun p61() Bool)
(declare-fun p17() Bool)
(declare-fun p77() Bool)
(declare-fun p107() Bool)
(declare-fun p36() Bool)
(declare-fun p106() Bool)
(declare-fun p47() Bool)
(declare-fun p12() Bool)
(declare-fun p99() Bool)
(declare-fun p69() Bool)
(declare-fun p94() Bool)
(declare-fun p76() Bool)
(declare-fun p33() Bool)
(declare-fun p7() Bool)
(declare-fun p57() Bool)
(declare-fun p44() Bool)
(declare-fun p45() Bool)
(declare-fun p20() Bool)
(declare-fun p96() Bool)
(declare-fun p24() Bool)
(declare-fun p83() Bool)
(declare-fun p110() Bool)
(declare-fun p10() Bool)
(declare-fun p115() Bool)
(declare-fun p35() Bool)
(declare-fun p34() Bool)
(declare-fun p27() Bool)
(declare-fun p112() Bool)
(declare-fun p85() Bool)
(declare-fun p58() Bool)
(declare-fun p68() Bool)
(declare-fun p30() Bool)
(declare-fun p53() Bool)
(declare-fun p105() Bool)
(declare-fun p39() Bool)
(declare-fun p73() Bool)
(declare-fun p0() Bool)
(declare-fun p72() Bool)
(declare-fun p84() Bool)
(declare-fun p28() Bool)
(declare-fun p74() Bool)
(declare-fun p117() Bool)
(declare-fun p119() Bool)
(declare-fun p14() Bool)
(declare-fun p32() Bool)
(declare-fun p22() Bool)
(declare-fun p48() Bool)
(declare-fun p16() Bool)
(declare-fun p98() Bool)
(declare-fun p66() Bool)
(declare-fun p93() Bool)
(declare-fun p50() Bool)
(declare-fun p71() Bool)
(declare-fun p82() Bool)
(declare-fun p118() Bool)
(declare-fun p40() Bool)
(declare-fun p79() Bool)
(declare-fun p101() Bool)
(declare-fun p56() Bool)
(declare-fun p11() Bool)
(declare-fun p37() Bool)
(declare-fun p109() Bool)
(declare-fun p55() Bool)
(assert
(and (or (not p80) p62 (not p100)) (or p52 p87 p42) (or (not p25) (not p49) (not p62)) (or (not p90) p43 (not p49)) (or p46 p63 p2) (or p5 p1 (not p91)) (or p1 (not p86) p29) (or (not p113) p6 (not p5)) (or (not p64) p38 (not p70)) (or (not p42) (not p52) p75) (or (not p88) (not p65) (not p9)) (or p18 (not p3) (not p15)) (or (not p21) p104 (not p95)) (or p102 p97 p2) (or (not p31) p23 p97) (or p81 (not p60) (not p116)) (or p59 (not p103) (not p108)) (or (not p4) (not p18) (not p13)) (or (not p111) (not p89) p42) (or p78 (not p13) (not p13)) (or (not p8) (not p91) (not p26)) (or p5 (not p67) (not p81)) (or p63 p41 (not p54)) (or p92 (not p19) (not p51)) (or (not p80) (not p114) (not p15)) (or (not p19) p70 (not p61)) (or (not p17) p77 (not p107)) (or (not p46) p103 p77) (or (not p9) (not p6) (not p36)) (or p104 p106 (not p19)) (or p59 p89 p113) (or (not p38) p47 (not p41)) (or (not p97) (not p12) p104) (or p4 (not p65) p59) (or (not p99) p69 p94) (or (not p42) p65 p76) (or (not p2) (not p33) p7) (or p57 (not p44) (not p44)) (or p51 p61 (not p62)) (or p36 (not p45) p70) (or p20 p8 p57) (or p4 p100 p87) (or (not p99) p96 (not p43)) (or (not p21) p86 p70) (or p9 (not p24) (not p7)) (or p83 (not p78) p90) (or p62 p64 p116) (or p110 p21 p94) (or p111 p26 (not p57)) (or (not p69) (not p10) (not p6)) (or (not p115) p24 (not p33)) (or p35 (not p34) p27) (or (not p102) p112 (not p108)) (or (not p106) p25 p6) (or (not p21) p85 p91) (or (not p110) (not p7) p92) (or (not p57) (not p65) (not p7)) (or p103 (not p58) p12) (or (not p54) p115 (not p58)) (or p68 p10 (not p13)) (or (not p106) p24 p116) (or (not p30) (not p64) (not p88)) (or p53 p105 (not p96)) (or p7 p39 (not p112)) (or p47 (not p3) p36) (or p73 p26 p47) (or p0 (not p31) (not p58)) (or p72 p64 p0) (or p73 p24 (not p84)) (or p41 p96 p47) (or (not p12) p115 (not p102)) (or (not p8) (not p41) p10) (or (not p75) p35 p28) (or p94 p46 p35) (or (not p113) p51 p111) (or p114 (not p60) (not p74)) (or (not p96) p4 p47) (or p117 (not p119) (not p95)) (or p57 p14 (not p61)) (or p47 p86 p70) (or (not p13) p29 (not p20)) (or p1 p32 p105) (or (not p73) p36 p81) (or p22 (not p12) (not p113)) (or (not p94) (not p48) (not p43)) (or p23 (not p14) (not p17)) (or p16 (not p100) p5) (or p7 (not p14) p78) (or p45 p102 (not p36)) (or (not p34) p110 (not p103)) (or (not p27) p60 p42) (or (not p3) (not p22) (not p80)) (or (not p13) (not p44) p98) (or (not p16) p104 (not p24)) (or (not p98) p3 p66) (or p3 p76 (not p68)) (or (not p93) (not p16) p45) (or (not p87) p95 (not p84)) (or p76 p107 (not p85)) (or p26 p17 p50) (or (not p32) p80 p93) (or p71 p41 (not p54)) (or p47 p66 (not p113)) (or (not p80) p30 (not p110)) (or (not p50) p51 p59) (or (not p69) (not p95) p105) (or (not p76) p49 (not p98)) (or p38 (not p97) p94) (or (not p21) p48 (not p18)) (or p9 (not p8) (not p4)) (or (not p119) p4 (not p64)) (or p7 p75 p8) (or p58 (not p35) (not p99)) (or (not p85) p63 (not p10)) (or p59 (not p64) p15) (or p114 (not p0) p82) (or (not p59) p111 (not p85)) (or (not p82) (not p118) p0) (or p51 (not p35) (not p8)) (or (not p42) p52 p30) (or (not p21) p31 (not p100)) (or (not p40) p94 p91) (or (not p92) p108 p46) (or (not p23) p6 (not p25)) (or (not p28) (not p30) p81) (or (not p89) (not p14) p61) (or p79 p28 (not p13)) (or (not p83) (not p59) (not p23)) (or p119 (not p14) (not p96)) (or p59 (not p100) p84) (or (not p28) p61 p68) (or (not p43) p34 p70) (or (not p83) p101 (not p111)) (or (not p25) (not p67) p56) (or p89 p88 p115) (or p105 (not p80) p12) (or p75 p19 (not p2)) (or (not p12) p74 (not p22)) (or p18 (not p91) (not p71)) (or (not p115) p87 (not p95)) (or (not p45) p88 p52) (or p11 (not p54) p117) (or p58 (not p111) (not p113)) (or (not p75) (not p72) p8) (or p16 (not p104) (not p40)) (or (not p60) p92 p5) (or p46 (not p16) (not p94)) (or p3 p73 p108) (or p66 (not p82) p6) (or p53 (not p86) (not p7)) (or p90 p37 (not p40)) (or (not p92) p4 (not p79)) (or p87 (not p62) (not p33)) (or (not p60) p48 p116) (or p101 p56 (not p91)) (or p26 p94 p37) (or p84 p35 p61) (or p7 (not p94) p13) (or p119 (not p32) (not p4)) (or (not p78) p33 (not p119)) (or p49 (not p74) (not p102)) (or p40 (not p21) (not p85)) (or p50 p34 (not p51)) (or (not p48) p15 p40) (or p109 (not p116) (not p5)) (or (not p97) p83 p110) (or (not p38) (not p79) (not p80)) (or p111 (not p27) (not p26)) (or (not p68) p95 p76) (or (not p88) p92 (not p55)) (or p101 p119 (not p34)) (or p15 (not p100) p81) (or p84 (not p119) p89) (or p79 (not p51) (not p55)) (or (not p46) (not p115) (not p12)) (or (not p87) (not p80) p34) (or (not p6) (not p50) (not p79)) (or p98 p99 p13) (or (not p23) (not p32) (not p42)) (or p70 (not p28) (not p96)) (or (not p111) p3 p16) (or (not p45) p96 p80) (or (not p59) p87 (not p18)) (or (not p0) (not p4) (not p53)) (or (not p118) p23 (not p80)) (or (not p2) (not p6) p38) (or p34 (not p115) (not p13)) (or (not p49) p91 p112) (or p40 p29 (not p75)) (or p76 p28 (not p12)) (or p87 (not p75) p42) (or (not p62) p40 (not p103)) (or p40 p95 p118) (or p59 p5 p57) (or p12 (not p77) (not p101)) (or p3 (not p75) (not p19)) (or p11 (not p31) p51) (or p84 p91 p46) (or p97 p115 (not p4)) (or p37 p58 p67) (or (not p32) p108 (not p30)) (or (not p19) p1 (not p46)) (or p99 p112 (not p25)) (or p93 p100 p47) (or p93 (not p83) (not p102)) (or (not p88) (not p117) (not p101)) (or p72 (not p107) (not p46)) (or (not p95) (not p49) (not p3)) (or p85 (not p26) (not p62)) (or p68 (not p71) (not p16)) (or (not p104) (not p45) (not p17)) (or (not p53) (not p108) p13) (or (not p46) (not p39) p49) (or (not p78) p74 p2) (or p63 p22 p16) (or (not p67) p71 (not p100)) (or (not p30) (not p47) p84) (or (not p118) p69 p5) (or (not p39) (not p113) (not p86)) (or p49 p96 p37) (or p30 (not p2) p70) (or p117 (not p20) p45) (or (not p82) p8 p37) (or (not p119) p13 p51) (or p47 (not p10) p67) (or (not p7) p64 (not p45)) (or (not p4) p90 p46) (or p65 (not p2) (not p20)) (or p81 (not p27) p22) (or (not p38) p57 (not p52)) (or (not p38) (not p34) (not p35)) (or (not p112) (not p99) p59) (or (not p60) (not p118) (not p28)) (or p100 p37 (not p79)) (or p46 p34 (not p21)) (or p105 (not p2) (not p62)) (or p94 p87 p102) (or p20 (not p15) (not p52)) (or (not p68) p109 p49) (or (not p38) (not p14) p94) (or p51 (not p54) (not p31)) (or (not p13) p21 (not p73)) (or p71 p114 p20) (or (not p70) p29 (not p69)) (or (not p10) p75 p92) (or p53 p79 p110) (or p13 (not p84) (not p87)) (or p97 (not p88) p72) (or p12 (not p81) (not p27)) (or p13 (not p96) p77) (or (not p64) (not p86) p85) (or p77 p2 p25) (or p112 (not p4) p82) (or p6 (not p91) p108) (or p101 (not p108) (not p88)) (or p111 (not p84) p48) (or p35 (not p111) (not p24)) (or (not p24) (not p116) (not p101)) (or (not p23) (not p38) (not p35)) (or p47 p112 (not p38)) (or (not p3) (not p45) (not p112)) (or p35 (not p96) p42) (or (not p114) p110 p2) (or p76 p40 p47) (or p43 (not p16) (not p10)) (or p52 (not p115) p72) (or p116 p9 (not p61)) (or (not p80) p106 p74) (or (not p89) (not p23) p29) (or p118 p53 p71) (or p101 (not p19) (not p26)) (or (not p24) p26 (not p47)) (or (not p51) p10 p63) (or p26 (not p97) p19) (or (not p102) p59 p58) (or p27 p92 (not p109)) (or (not p104) p105 p94) (or p59 p27 (not p82)) (or (not p31) (not p101) p35) (or (not p86) p44 (not p77)) (or (not p67) p18 p79) (or (not p11) p36 p74) (or p89 p7 p92) (or p40 (not p100) (not p31)) (or (not p11) (not p72) (not p75)) (or (not p28) (not p116) (not p110)) (or p19 (not p75) (not p39)) (or (not p16) (not p57) (not p16)) (or (not p62) p48 (not p66)) (or p99 p83 p117) (or (not p74) (not p20) p56) (or p8 (not p106) (not p62)) (or p101 (not p31) (not p80)) (or p95 (not p12) p79) (or (not p41) p4 p107) (or (not p68) p86 p41) (or (not p17) (not p63) (not p36)) (or (not p98) (not p104) (not p100)) (or p79 (not p58) (not p67)) (or p36 p9 p95) (or (not p11) p95 p96) (or (not p33) (not p67) (not p19)) (or (not p63) (not p66) p78) (or (not p67) (not p35) (not p34)) (or p17 p57 (not p10)) (or (not p110) p55 p75) (or (not p11) (not p108) p109) (or (not p90) (not p77) p24) (or (not p44) p54 (not p105)) (or p55 (not p58) p98) (or (not p49) p39 p104) (or p53 (not p104) (not p40)) (or p23 (not p22) (not p61)) (or p99 p77 p104) (or p94 p111 p32) (or (not p81) p115 p21) (or p99 p11 p110) (or p88 p50 p46) (or (not p97) p97 p6) (or p46 p8 p25) (or p54 p12 (not p45)) (or p76 (not p114) p89) (or (not p112) p96 p88) (or (not p80) (not p100) (not p80)) (or (not p74) p46 p39) (or (not p6) (not p9) p12) (or p78 p112 p115) (or (not p85) p58 p6) (or (not p114) p86 p77) (or (not p71) p47 p47) (or (not p29) p24 (not p11)) (or (not p83) p2 (not p0)) (or p63 p27 (not p89)) (or (not p75) (not p38) p18) (or p64 p45 p15) (or p9 p107 (not p59)) (or p105 (not p16) (not p108)) (or (not p45) (not p18) p38) (or p80 (not p42) p33) (or p54 p18 p35) (or p114 (not p55) (not p51)) (or (not p92) (not p72) (not p88)) (or (not p96) (not p92) p59) (or (not p35) p110 (not p35)) (or (not p5) p104 p113) (or (not p33) (not p6) (not p114)) (or (not p12) (not p42) p68) (or p97 (not p18) p37) (or p76 p40 p62) (or (not p65) (not p3) p113) (or p115 (not p10) p65) (or p23 (not p5) (not p86)) (or (not p70) (not p109) p20) (or p93 (not p116) (not p100)) (or p116 (not p86) (not p55)) (or (not p75) p1 p55) (or p71 p111 p75) (or p92 p68 (not p7)) (or p54 p46 p38) (or p83 p22 p99) (or p59 p90 p82) (or (not p49) (not p46) (not p44)) (or p81 p88 (not p82)) (or (not p8) p42 (not p1)) (or (not p83) (not p31) p38) (or p46 (not p112) p75) (or p113 (not p74) (not p98)) (or (not p54) p71 (not p46)) (or (not p88) p18 (not p33)) (or (not p116) p46 p30) (or (not p107) p48 p75) (or (not p67) p1 p90) (or p110 p46 p32) (or p22 (not p26) p75) (or p55 (not p89) p86) (or p83 p27 (not p44)) (or p63 (not p60) (not p46)) (or (not p81) p92 p86) (or p5 (not p76) p12) (or p77 p93 p115) (or p105 (not p66) p31) (or p18 (not p115) p66) (or p67 p9 p68) (or (not p69) (not p12) (not p11)) (or p91 (not p55) p117) (or (not p100) (not p102) p20) (or (not p84) p107 (not p51)) (or p29 p85 p72) (or (not p56) (not p28) (not p87)) (or p92 (not p95) p84) (or p20 (not p17) p105) (or p81 p23 (not p83)) (or (not p95) p70 p55) (or p75 (not p118) (not p17)) (or (not p63) (not p60) p83) (or (not p55) p52 p8) (or p49 (not p111) p67) (or (not p47) (not p31) p111) (or (not p56) (not p43) (not p44)) (or p0 (not p91) p64) (or p89 (not p20) p20) (or (not p15) (not p89) p40) (or (not p54) (not p34) (not p14)) (or (not p94) (not p46) p48) (or p99 p41 p114) (or (not p16) p50 p12) (or (not p83) p10 p102) (or p50 p67 (not p94)) (or (not p99) p95 p17) (or (not p32) (not p91) p78) (or p110 p98 (not p46)) (or (not p114) p33 (not p116)) (or (not p87) (not p15) p37) (or p63 p68 p117) (or p40 (not p83) p107) (or (not p36) p40 (not p20)) (or p15 p40 (not p90)) (or (not p69) (not p100) (not p51)) (or p114 (not p26) (not p53)) (or (not p67) p45 (not p39)) (or (not p65) (not p19) p39) (or (not p116) (not p56) p94) (or p93 (not p7) (not p54)) (or p52 p1 (not p10)) (or (not p50) (not p95) (not p88)) (or (not p90) p14 p64) (or (not p74) p58 (not p11)) (or p68 (not p28) p95) (or (not p86) p95 p74) (or p34 (not p102) (not p28)) (or p113 p37 p79) (or (not p89) p108 p100) (or (not p17) p1 (not p82)) (or (not p8) p117 (not p32)) (or p119 p109 (not p31)) (or p41 p60 (not p74)) (or p62 p74 p79) (or (not p88) p94 p17) (or p112 p59 (not p64)) (or (not p100) p2 (not p69)) (or (not p21) (not p77) (not p7)) (or p114 (not p62) p24) (or (not p27) (not p15) p83) (or p74 (not p89) (not p44)) (or (not p114) (not p17) (not p69)) (or p91 (not p11) (not p79)) (or p4 p100 (not p18)) (or (not p42) p55 (not p53)) (or p41 (not p25) p56) (or (not p75) p1 p119) (or (not p84) (not p39) p43) (or (not p15) (not p116) p32) (or p54 p118 (not p95)) (or p94 (not p66) p73) (or (not p84) (not p114) p106) (or p55 p72 (not p68)) (or (not p16) (not p56) p9) (or (not p89) (not p72) p110) (or (not p40) p53 (not p14)) (or (not p43) (not p111) p98) (or p30 p12 (not p81)) (or (not p75) (not p97) (not p118)) (or (not p47) (not p60) (not p49)) (or (not p101) p44 (not p21)) (or (not p58) p14 p111) (or p78 p38 p2) (or p41 (not p116) p10) (or (not p2) (not p31) p68) (or (not p83) (not p71) (not p42)) (or p8 (not p81) (not p46)) (or (not p33) (not p63) p46) (or p12 (not p60) p5) (or (not p39) (not p105) (not p113)) (or (not p82) p26 p54) (or (not p25) p16 (not p2)) (or p3 p73 (not p87)) (or p14 (not p14) p34) (or (not p52) p77 (not p83)) (or p35 p64 p101) (or p89 p19 (not p50)) (or p114 (not p32) (not p82)) (or p90 (not p98) (not p58)) (or (not p53) (not p39) (not p89)) (or p55 p14 p30) (or p114 (not p51) p92) (or p24 p89 (not p26)) (or p14 (not p94) p50) (or (not p40) p111 p118) (or p94 p14 (not p101)) (or p29 (not p105) p56) (or p76 p74 (not p103)) (or (not p56) p48 (not p31)) (or (not p109) (not p112) p68) (or (not p94) p76 (not p64)) (or (not p103) p108 (not p12)) (or (not p73) p87 (not p49)) (or (not p26) (not p103) p78) (or (not p58) p82 p58) (or (not p55) (not p27) p10) (or p100 (not p60) (not p74)) (or p70 p74 p8) (or p14 p15 p38) (or p114 (not p75) p101) (or (not p63) p116 (not p83)) (or (not p23) (not p112) (not p110)) (or p12 p74 p77) (or p66 p47 p36) (or (not p104) (not p70) p40) (or (not p6) (not p97) (not p17)) (or (not p36) (not p117) p118) (or (not p34) (not p10) p48) (or p29 p18 p64) (or p31 p57 p102) (or (not p87) (not p59) (not p73)) (or p96 (not p85) p74) (or (not p86) p80 (not p117)) (or (not p66) p92 p41) (or (not p108) (not p73) p52) (or (not p46) p49 p32) (or p25 p92 (not p90)) (or (not p111) (not p117) p97) (or p33 (not p20) p104) (or p26 p68 p2) (or p32 (not p44) (not p0)) (or p30 (not p40) p93) (or p87 p28 p118) (or p45 (not p16) (not p86)) (or (not p17) p115 (not p44)) (or p117 p15 (not p5)) (or p74 (not p91) (not p67)) (or p111 (not p79) (not p51)) (or p43 (not p94) (not p103)) (or p114 p9 (not p35)) (or (not p116) p93 (not p77)) (or (not p40) (not p115) p98) (or (not p113) (not p0) (not p1)) (or p96 p21 p65) (or p77 (not p60) (not p17)) (or p115 p26 p56) (or p13 p44 (not p76)) (or (not p88) (not p109) p100) (or p65 (not p63) (not p99)) (or (not p77) (not p104) p119) (or p99 (not p22) p26) (or (not p85) (not p71) p70) (or (not p53) (not p119) p25) (or p19 (not p109) p75) (or (not p64) (not p78) p19) (or (not p74) p119 (not p18)) (or p31 (not p79) p3) (or (not p41) (not p85) p66) (or p62 (not p58) (not p86)) (or p15 (not p104) (not p73)) (or (not p65) (not p22) p75) (or p6 p31 (not p68)) (or (not p30) p94 (not p41)) (or p70 p64 p2) (or (not p50) p27 p101) (or p91 p69 p74) (or (not p33) (not p91) (not p88)) (or p29 p66 (not p62)) (or p33 p117 p67) (or p28 p66 p18) (or (not p91) (not p17) p23) (or (not p12) (not p6) (not p17)) (or p23 (not p101) p8) (or p95 (not p91) (not p119)) (or (not p53) p11 (not p101)) (or (not p119) p77 p93) (or p104 (not p2) (not p78)) (or (not p17) p100 (not p23)) (or p55 (not p109) p118) (or (not p102) p104 p25) (or (not p85) (not p103) p62) (or p47 (not p36) (not p22)) (or (not p15) p92 (not p108)) (or p39 p87 (not p95)) (or (not p113) p27 p116) (or (not p81) p11 p16) (or (not p1) p90 p82) (or p54 p15 (not p36)) (or (not p21) (not p93) (not p20)) (or (not p66) p103 (not p18)) (or p36 p12 (not p37)) (or (not p107) p43 p16) (or p98 (not p75) p61) (or p60 (not p63) p9) (or p38 p83 (not p104)) (or (not p113) (not p93) p46) (or (not p59) (not p15) p40) (or p96 p119 p99) (or p52 (not p50) p74) (or p104 (not p61) (not p22)) (or p84 (not p86) (not p68)) (or p2 (not p98) p3) (or (not p72) p82 (not p16)) (or p41 (not p63) (not p46)) (or p67 p29 (not p18)) (or (not p106) (not p62) (not p82)))
)
(check-sat)
(get-model)
